p cnf 400
-11 -108
-12 -111
-13 -114
-14 -117
-15 -120
-16 -123
-17 -126
-18 -129
-19 -132
-20 -135
-21 -137
-22 -139
-23 -141
-24 -143
-25 -145
-26 -147
-27 -149
-28 -151
-29 -153
-30 -155
-31 156
-32 -17
-32 20
17 -20 32
-33 17
-33 -20
-17 20 33
-34 -32
-34 -33
32 33 34
-35 -1
-35 -2
1 2 35
-36 -3
-36 -4
3 4 36
-37 -5
-37 -6
5 6 37
-38 -7
-38 -8
7 8 38
-39 -9
-39 -10
9 10 39
-40 35
-40 36
-35 -36 40
-41 37
-41 38
-37 -38 41
-42 40
-42 41
-40 -41 42
-43 39
-43 42
-39 -42 43
-44 -21
-44 -22
21 22 44
-45 -23
-45 -24
23 24 45
-46 -25
-46 -26
25 26 46
-47 -27
-47 -28
27 28 47
-48 -29
-48 -30
29 30 48
-49 44
-49 45
-44 -45 49
-50 46
-50 47
-46 -47 50
-51 49
-51 50
-49 -50 51
-52 48
-52 51
-48 -51 52
-53 21
-53 -34
-21 34 53
-54 -21
-54 34
21 -34 54
-55 -53
-55 -54
53 54 55
-56 11
-56 22
-11 -22 56
-57 -11
-57 -22
11 22 57
-58 -56
-58 -57
56 57 58
-59 12
-59 23
-12 -23 59
-60 -12
-60 -23
12 23 60
-61 -59
-61 -60
59 60 61
-62 13
-62 24
-13 -24 62
-63 -13
-63 -24
13 24 63
-64 -62
-64 -63
62 63 64
-65 14
-65 25
-14 -25 65
-66 -14
-66 -25
14 25 66
-67 -65
-67 -66
65 66 67
-68 15
-68 26
-15 -26 68
-69 -15
-69 -26
15 26 69
-70 -68
-70 -69
68 69 70
-71 16
-71 27
-16 -27 71
-72 -16
-72 -27
16 27 72
-73 -71
-73 -72
71 72 73
-74 17
-74 28
-17 -28 74
-75 -17
-75 -28
17 28 75
-76 -74
-76 -75
74 75 76
-77 18
-77 29
-18 -29 77
-78 -18
-78 -29
18 29 78
-79 -77
-79 -78
77 78 79
-80 19
-80 30
-19 -30 80
-81 -19
-81 -30
19 30 81
-82 -80
-82 -81
80 81 82
-83 -55
-83 -58
55 58 83
-84 -61
-84 -64
61 64 84
-85 -67
-85 -70
67 70 85
-86 -73
-86 -76
73 76 86
-87 -79
-87 -82
79 82 87
-88 83
-88 84
-83 -84 88
-89 85
-89 86
-85 -86 89
-90 88
-90 89
-88 -89 90
-91 87
-91 90
-87 -90 91
-92 -52
-92 91
52 -91 92
-93 31
-93 92
-31 -92 93
-94 43
-94 93
-43 -93 94
-95 -11
-95 34
11 -34 95
-96 -12
-96 -13
12 13 96
-97 -14
-97 -15
14 15 97
-98 -16
-98 -17
16 17 98
-99 -18
-99 -19
18 19 99
-100 95
-100 96
-95 -96 100
-101 97
-101 98
-97 -98 101
-102 100
-102 101
-100 -101 102
-103 99
-103 102
-99 -102 103
-104 -52
-104 103
52 -103 104
-105 43
-105 -92
-43 92 105
-106 1
-106 -43
-1 43 106
-107 -34
-107 43
34 -43 107
-108 -106
-108 -107
106 107 108
-109 2
-109 -43
-2 43 109
-110 11
-110 43
-11 -43 110
-111 -109
-111 -110
109 110 111
-112 3
-112 -43
-3 43 112
-113 12
-113 43
-12 -43 113
-114 -112
-114 -113
112 113 114
-115 4
-115 -43
-4 43 115
-116 13
-116 43
-13 -43 116
-117 -115
-117 -116
115 116 117
-118 5
-118 -43
-5 43 118
-119 14
-119 43
-14 -43 119
-120 -118
-120 -119
118 119 120
-121 6
-121 -43
-6 43 121
-122 15
-122 43
-15 -43 122
-123 -121
-123 -122
121 122 123
-124 7
-124 -43
-7 43 124
-125 16
-125 43
-16 -43 125
-126 -124
-126 -125
124 125 126
-127 8
-127 -43
-8 43 127
-128 17
-128 43
-17 -43 128
-129 -127
-129 -128
127 128 129
-130 9
-130 -43
-9 43 130
-131 18
-131 43
-18 -43 131
-132 -130
-132 -131
130 131 132
-133 10
-133 -43
-10 43 133
-134 19
-134 43
-19 -43 134
-135 -133
-135 -134
133 134 135
-136 21
-136 43
-21 -43 136
-137 -106
-137 -136
106 136 137
-138 22
-138 43
-22 -43 138
-139 -109
-139 -138
109 138 139
-140 23
-140 43
-23 -43 140
-141 -112
-141 -140
112 140 141
-142 24
-142 43
-24 -43 142
-143 -115
-143 -142
115 142 143
-144 25
-144 43
-25 -43 144
-145 -118
-145 -144
118 144 145
-146 26
-146 43
-26 -43 146
-147 -121
-147 -146
121 146 147
-148 27
-148 43
-27 -43 148
-149 -124
-149 -148
124 148 149
-150 28
-150 43
-28 -43 150
-151 -127
-151 -150
127 150 151
-152 29
-152 43
-29 -43 152
-153 -130
-153 -152
130 152 153
-154 30
-154 43
-30 -43 154
-155 -133
-155 -154
133 154 155
-156 -31
-156 105
31 -105 156
-157 -94
-157 -104
94 104 157
-157
